10
00 05 20 55 43 82 65 34 82 64
32 00 73 65 13 01 71 79 95 59
34 78 00 12 09 08 77 03 04 53
39 97 18 00 49 03 28 67 72 17
42 81 09 25 00 07 32 86 91 58
48 77 28 83 74 00 14 95 92 83
19 93 16 14 24 01 00 96 87 42
70 15 92 08 50 67 75 00 96 85
29 56 96 02 36 23 87 11 00 63
83 57 40 80 58 74 73 68 45 00
